tsp_instances/TSP20/instance88.tsp
NODE_COORD_SECTION
0 138 56
1 184 93
2 75 199
3 45 97
4 163 92
5 79 198
6 16 47
7 189 13
8 105 187
9 76 106
10 143 66
11 71 164
12 167 109
13 121 85
14 107 25
15 71 184
16 74 142
17 68 115
18 161 86
19 190 104
