tsp_instances/TSP20/instance88.opt.tour
TOUR_SECTION
1
8
15
7
4
10
18
17
12
16
3
6
9
13
20
2
5
19
14
11
-1